# Solution for model r10_t36_m7_1
# Finished Task: 36 / 36
# Makespan: 408.0, Total Distance: 1743.0, Total Time: 0.5622
# R O S F
0 0 24 0.0 0.0
1 1 32 0.0 0.0
2 2 39 0.0 0.0
3 3 34 0.0 0.0
4 4 28 0.0 0.0
5 5 14 0.0 0.0
6 6 27 0.0 0.0
7 7 23 0.0 0.0
8 8 29 0.0 0.0
9 9 19 0.0 0.0
10 2 -1 300.0 335.0
11 3 42 309.0 337.0
12 4 -1 324.0 351.0
13 5 -1 315.0 345.0
14 5 17 72.0 107.0
15 6 -1 314.0 335.0
16 7 -1 309.0 345.0
17 5 13 294.0 315.0
18 8 45 302.0 322.0
19 9 25 91.0 124.0
20 9 35 251.0 272.0
21 0 -1 371.0 408.0
22 4 12 284.0 312.0
23 7 43 106.0 138.0
24 0 26 109.0 148.0
25 9 20 228.0 251.0
26 0 31 181.0 206.0
27 6 44 51.0 87.0
28 4 33 124.0 150.0
29 8 37 31.0 53.0
30 8 41 126.0 159.0
31 0 21 267.0 303.0
32 1 36 175.0 212.0
33 4 22 249.0 270.0
34 3 38 143.0 178.0
35 9 -1 293.0 315.0
36 1 -1 280.0 318.0
37 8 30 86.0 110.0
38 3 11 212.0 250.0
39 2 10 237.0 271.0
40 7 16 229.0 266.0
41 8 18 175.0 209.0
42 3 -1 337.0 370.0
43 7 40 168.0 195.0
44 6 15 227.0 251.0
45 8 -1 341.0 362.0
